% Auto-generated by scripts/generate_dzn.py
% problem_type   = regex
% instance       = regex_82
% source_json    = instances_json/1_medium_blowup/regex_82.json
% blowup         = 3.611111111111111
% representation = NFA

mode = 1;

var_count = 21;
n_constraints = 2;
Q = 9;
S = 2;
q0 = [1, 1];
F = [{9}, {9}];
weights = [5, 9, 6, 1, 10, 6, 3, 7, 2, 9, 3, 9, 1, 9, 10, 10, 5, 5, 8, 6, 10];
d_dfa = array3d(1..2, 1..9, 1..2, [
  % k = 1
    0, 0,
    0, 0,
    0, 0,
    0, 0,
    0, 0,
    0, 0,
    0, 0,
    0, 0,
    0, 0,

  % k = 2
    0, 0,
    0, 0,
    0, 0,
    0, 0,
    0, 0,
    0, 0,
    0, 0,
    0, 0,
    0, 0
]);
d_nfa = array3d(1..2, 1..9, 1..2, [
  % k = 1
    {1, 2}, {1},
    {}, {3},
    {4}, {4},
    {5}, {5},
    {6}, {6},
    {7}, {7},
    {8}, {8},
    {9}, {9},
    {}, {},

  % k = 2
    {1}, {2},
    {2}, {3},
    {3}, {4},
    {4}, {5},
    {5}, {6},
    {6}, {7},
    {7}, {8},
    {8}, {9},
    {9}, {}
]);
